81
Time limit set to 60 seconds
Running CP solver
/home/omastto1/General-Optimization-Solver/src/solvers/mmrcpsp.py:42(stream:108:6): Warning: Cumulative expression 'pulse': height is zero, expression is zero everywhere.
                                                                                               VarCumulAtom_149 = pulse(task_0_mode_0, 0)
/home/omastto1/General-Optimization-Solver/src/solvers/mmrcpsp.py:42(stream:108:1252): Warning: Cumulative expression 'pulse': height is zero, expression is zero everywhere.
                                                                                                  VarCumulAtom_198 = pulse(task_17_mode_0, 0)
/home/omastto1/General-Optimization-Solver/src/solvers/mmrcpsp.py:42(stream:109:6): Warning: Cumulative expression 'pulse': height is zero, expression is zero everywhere.
                                                                                               VarCumulAtom_202 = pulse(task_0_mode_0, 0)
/home/omastto1/General-Optimization-Solver/src/solvers/mmrcpsp.py:42(stream:109:1254): Warning: Cumulative expression 'pulse': height is zero, expression is zero everywhere.
                                                                                                  VarCumulAtom_251 = pulse(task_17_mode_0, 0)
 ! --------------------------------------------------- CP Optimizer 20.1.0.0 --
 ! Minimization problem - 69 variables, 51 constraints
 ! TimeLimit            = 60
 ! Workers              = 14
 ! LogVerbosity         = Terse
 ! Initial process time : 0.00s (0.00s extraction + 0.00s propagation)
 !  . Log search space  : 159.9 (before), 159.9 (after)
 !  . Memory usage      : 754.6 kB (before), 754.6 kB (after)
 ! Using parallel search with 14 workers.
 ! ----------------------------------------------------------------------------
 !          Best Branches  Non-fixed    W       Branch decision
                        0         69                 -
 + New bound is 19
 ! Using iterative diving.
 ! Using temporal relaxation.
 *            19        7  0.10s        1      (gap is 0.00%)
 ! ----------------------------------------------------------------------------
 ! Search completed, 1 solution found.
 ! Best objective         : 19 (optimal - effective tol. is 0)
 ! Best bound             : 19
 ! ----------------------------------------------------------------------------
 ! Number of branches     : 54880
 ! Number of fails        : 1453
 ! Total memory usage     : 9.0 MB (8.9 MB CP Optimizer + 0.1 MB Concert)
 ! Time spent in solve    : 0.13s (0.13s engine + 0.00s extraction)
 ! Search speed (br. / s) : 422153.8
 ! ----------------------------------------------------------------------------
task_0: (start=0, end=0, size=0, length=0)
Task 0 is scheduled in mode 0 from 0 to 0
task_1: (start=0, end=3, size=3, length=3)
Task 1 is scheduled in mode 0 from 0 to 3
task_2: (start=0, end=5, size=5, length=5)
Task 2 is scheduled in mode 0 from 0 to 5
task_3: (start=0, end=2, size=2, length=2)
Task 3 is scheduled in mode 0 from 0 to 2
task_4: (start=2, end=4, size=2, length=2)
Task 4 is scheduled in mode 0 from 2 to 4
task_5: (start=4, end=6, size=2, length=2)
Task 5 is scheduled in mode 1 from 4 to 6
task_6: (start=2, end=8, size=6, length=6)
Task 6 is scheduled in mode 2 from 2 to 8
task_7: (start=6, end=15, size=9, length=9)
Task 7 is scheduled in mode 2 from 6 to 15
task_8: (start=2, end=9, size=7, length=7)
Task 8 is scheduled in mode 2 from 2 to 9
task_9: (start=8, end=9, size=1, length=1)
Task 9 is scheduled in mode 0 from 8 to 9
task_10: (start=8, end=10, size=2, length=2)
Task 10 is scheduled in mode 0 from 8 to 10
task_11: (start=8, end=13, size=5, length=5)
Task 11 is scheduled in mode 1 from 8 to 13
task_12: (start=10, end=15, size=5, length=5)
Task 12 is scheduled in mode 0 from 10 to 15
task_13: (start=15, end=18, size=3, length=3)
Task 13 is scheduled in mode 1 from 15 to 18
task_14: (start=5, end=15, size=10, length=10)
Task 14 is scheduled in mode 2 from 5 to 15
task_15: (start=18, end=19, size=1, length=1)
Task 15 is scheduled in mode 0 from 18 to 19
task_16: (start=15, end=19, size=4, length=4)
Task 16 is scheduled in mode 0 from 15 to 19
task_17: (start=19, end=19, size=0, length=0)
Task 17 is scheduled in mode 0 from 19 to 19
Optimal solution found
Objective value: 19
Solution is optimal.
